#pLT is two-dimensional [i,r]=[component, individual]
#[i,*] means all data in row i.

param pLT := 
[1,*]
1  0    2  5    3  7    4  7    5  6    6  6    

[2,*]
1  2    2  5    3  5    4  4    5  5    6  4    
;